n_res = 4;
rc = [ 0, 0, 0, 0 ];
n_tasks = 30;
d = [ 8, 9, 7, 6, 9, 4, 10, 5, 2, 1, 8, 5, 1, 9, 10, 6, 5, 1, 3, 4, 4, 7, 3, 4, 1, 6, 5, 1, 3, 7 ];
rr = [| 0, 0, 0, 0, 0, 0, 0, 0, 0, 0, 0, 0, 0, 0, 0, 0, 0, 0, 0, 0, 0, 0, 0, 0, 0, 0, 0, 0, 0, 0
      | 0, 0, 0, 0, 0, 0, 0, 0, 0, 0, 0, 0, 0, 0, 0, 0, 0, 0, 0, 0, 0, 0, 0, 0, 0, 0, 0, 0, 0, 0
      | 0, 0, 0, 0, 0, 0, 0, 0, 0, 0, 0, 0, 0, 0, 0, 0, 0, 0, 0, 0, 0, 0, 0, 0, 0, 0, 0, 0, 0, 0
      | 0, 0, 0, 0, 0, 0, 0, 0, 0, 0, 0, 0, 0, 0, 0, 0, 0, 0, 0, 0, 0, 0, 0, 0, 0, 0, 0, 0, 0, 0 |];
suc = [ { 4, 5 },
       { 8, 21, 23 },
       { 4, 8, 12 },
       { 6, 9, 14 },
       { 6, 8 },
       { 7, 11, 15 },
       { 10, 13, 16 },
       { 17, 18, 24 },
       { 22, 25, 26 },
       { 18, 20, 21 },
       { 13, 20 },
       { 13, 15, 24 },
       { 17, 18, 23 },
       { 15, 19, 29 },
       { 25 },
       { 17, 19, 20 },
       { 26 },
       { 26, 27 },
       { 21, 24 },
       { 22, 23 },
       { 22, 27 },
       { 30 },
       { 25, 29 },
       { 28 },
       { 27, 30 },
       { 28, 29, 30 },
       { 28 },
       {  },
       {  },
       {  } ];
